100
32
6
5
24
6
7
3
29
14
8
12
9
6
29
2
9
16
24
4
9
8
17
9
14
13
12
12
23
3
1
18
1
5
3
1
1
9
18
1
18
2
5
3
1
2
2
3
1
17
10
6
1
22
16
4
3
2
2
2
2
1
1
2
1
3
5
1
6
1
3
19
1
1
1
1
3
3
4
1
2
1
1
1
1
1
1
1
18
3
6
1
1
1
2
1
17
1
1
1
3
2